SCIP version 5.0.0 [precision: 8 byte] [memory: block] [mode: optimized] [LP solver: NONE] [GitHash: 3bbd232]
Copyright (C) 2002-2017 Konrad-Zuse-Zentrum fuer Informationstechnik Berlin (ZIB)

External codes: 
  Readline EditLine w  GNU library for command line editing (gnu.org/s/readline)
  CppAD 20160000.1     Algorithmic Differentiation of C++ algorithms developed by B. Bell (www.coin-or.org/CppAD)
  ZLIB 1.2.5           General purpose compression library by J. Gailly and M. Adler (zlib.net)
  GMP 6.1.2            GNU Multiple Precision Arithmetic Library developed by T. Granlund (gmplib.org)

user parameter file <scip.set> not found - using default parameters

read problem <../../Split_data/output/parkin/2/3_sample_parkin.logreg>
============

File name	:	../../Split_data/output/parkin/2/3_sample_parkin.logreg
Problem name 	:	3_sample_parkin
Number of data	:	156
Number of var	:	22
The given data has linear independence

[dim=1] time: 0.003082
[dim=2] time: 0.006137
[dim=3] time: 0.008802
[dim=4] time: 0.012533
[dim=5] time: 0.016605
[dim=6] Time of forward = 0.019671sec.
AIC: 69.4152
k: 5

[dim=22] time: 0.145924
[dim=21] time: 0.252571
[dim=20] time: 0.316675
[dim=19] time: 0.333607
[dim=18] time: 0.403661
[dim=17] time: 0.457264
[dim=16] time: 0.465103
[dim=15] time: 0.503145
[dim=14] time: 0.528734
[dim=13] time: 0.554149
[dim=12] time: 0.568764
[dim=11] time: 0.578743
[dim=10] time: 0.586694
[dim=9] time: 0.592295
[dim=8] time: 0.594836
[dim=7] time: 0.598099
[dim=6] Time of backward = 0.599695sec.
AIC: 49.697
k: 7
